# 1179
param k := 6;
param n := 60;
param s := 1;
set E :=  (0,41) (1,4) (2,14) (2,15) (3,37) (4,20) (4,54) (5,27) (5,49) (6,47) (7,24) (7,25) (7,32) (8,22) (8,50) (9,17) (10,48) (10,54) (11,47) (11,55) (11,57) (12,17) (12,26) (12,27) (12,31) (13,33) (13,42) (13,43) (13,44) (14,20) (14,30) (14,32) (14,42) (14,55) (15,23) (16,47) (18,22) (18,40) (19,58) (21,33) (23,34) (25,34) (26,34) (28,29) (29,49) (30,59) (31,58) (32,51) (34,35) (34,48) (36,49) (37,47) (37,59) (38,51) (39,41) (39,59) (45,56) (46,52) (47,52) (47,56) (49,50) (50,53);